(set-logic ALL)
(declare-var size (BitVec 32))
(declare-var x (BitVec 32))
(declare-var y (BitVec 32))
(declare-var z (BitVec 32))
(declare-var x! (BitVec 32))
(declare-var y! (BitVec 32))
(declare-var z! (BitVec 32))
(declare-var size! (BitVec 32))
(synth-fun inv-f((parameter0 (BitVec 32))(parameter1 (BitVec 32))(parameter2 (BitVec 32))(parameter3 (BitVec 32)))Bool) 
(constraint (=> (= x (_ bv0 32))(inv-f x y z size )))
(constraint (=> (and (inv-f x y z size ) (or (and (= x! (bvadd x (_ bv1 32))) (and (= y! z!) (and (bvule z! y) (bvult x size) ) ) ) (and (= x! (bvadd x (_ bv1 32))) (and (= y! y) (and (bvugt z! y) (bvult x size) ) ) ) ) )(inv-f x! y! z! size! )))
(constraint (=> (inv-f x y z size )(not (and (and (bvuge x size) (bvult z y) ) (bvugt size (_ bv0 32)) ))))
(check-synth)

